problems/csplib-prob056/sonet-models/noch/O2/lingeling/model_3_1-s3ring06-solution000001.eprime-solution
language ESSENCE' 1.0

letting network_ExplicitWithFlagsR5_Flags be [2, 1, 1, 1, 1, 1, 0; int(1..7)]
letting network_ExplicitWithFlagsR5_Values_ExplicitVarSizeWithMarker_Marker be [0, 3, 4, 5, 5, 5, 0; int(1..7)]
letting network_ExplicitWithFlagsR5_Values_ExplicitVarSizeWithMarker_Values be
        [[1, 1, 1, 1, 1; int(1..5)], [2, 6, 7, 1, 1; int(1..5)], [1, 2, 3, 12, 1; int(1..5)],
         [2, 4, 5, 9, 13; int(1..5)], [3, 7, 9, 11, 12; int(1..5)], [6, 8, 9, 10, 13; int(1..5)],
         [1, 1, 1, 1, 1; int(1..5)]; int(1..7)]
