problems/csplib-prob056/sonet-models/noch/O2/lingeling/model_3_1-s3ring06-solution000001.solution
language Essence 1.3

letting network be mset({}, {}, {1, 2, 3, 12}, {2, 4, 5, 9, 13}, {2, 6, 7}, {3, 7, 9, 11, 12}, {6, 8, 9, 10, 13})
$ Here is a simple "visualisation" for the value above.
$ 
$ 
$  1  2  3 12
$  2  4  5  9 13
$  2  6  7
$  3  7  9 11 12
$  6  8  9 10 13

